;; produced by cvc4_16.drv ;;
(set-logic AUFBVFPDTNIRA)
(set-info :smt-lib-version 2.6)
;;; generated by SMT-LIB2 driver
;;; SMT-LIB2 driver: bit-vectors, common part
;;; SMT-LIB2: integer arithmetic
(declare-sort string 0)

(declare-datatypes ((tuple0 0))
(((Tuple0))))
(declare-sort us_private 0)

(declare-fun private__bool_eq (us_private us_private) Bool)

(declare-const us_null_ext__ us_private)

(declare-sort us_type_of_heap 0)

(declare-datatypes ((us_type_of_heap__ref 0))
(((us_type_of_heap__refqtmk (us_type_of_heap__content us_type_of_heap)))))
(declare-sort us_image 0)

(declare-datatypes ((int__ref 0))
(((int__refqtmk (int__content Int)))))
(declare-datatypes ((bool__ref 0))
(((bool__refqtmk (bool__content Bool)))))
(declare-datatypes ((us_fixed__ref 0))
(((us_fixed__refqtmk (us_fixed__content Int)))))
(declare-datatypes ((real__ref 0))
(((real__refqtmk (real__content Real)))))
(declare-datatypes ((us_private__ref 0))
(((us_private__refqtmk (us_private__content us_private)))))
(define-fun int__ref___projection ((a int__ref)) Int (int__content a))

(define-fun us_fixed__ref___projection ((a us_fixed__ref)) Int (us_fixed__content
                                                               a))

(define-fun bool__ref___projection ((a bool__ref)) Bool (bool__content a))

(define-fun real__ref___projection ((a real__ref)) Real (real__content a))

(define-fun us_private__ref___projection ((a us_private__ref)) us_private 
  (us_private__content a))

(declare-sort index_type 0)

(declare-fun index_typeqtint (index_type) Int)

;; index_type'axiom
  (assert
  (forall ((i index_type))
  (and (<= 0 (index_typeqtint i)) (<= (index_typeqtint i) 10))))

(define-fun in_range ((x Int)) Bool (and (<= 0 x) (<= x 10)))

(declare-fun attr__ATTRIBUTE_IMAGE (Int) us_image)

(declare-fun attr__ATTRIBUTE_VALUE__pre_check (us_image) Bool)

(declare-fun attr__ATTRIBUTE_VALUE (us_image) Int)

(declare-fun user_eq (index_type index_type) Bool)

(declare-const dummy index_type)

(declare-datatypes ((index_type__ref 0))
(((index_type__refqtmk (index_type__content index_type)))))
(define-fun index_type__ref_index_type__content__projection ((a index_type__ref)) index_type 
  (index_type__content a))

(define-fun dynamic_invariant ((temp___expr_159 Int)
  (temp___is_init_155 Bool) (temp___skip_constant_156 Bool)
  (temp___do_toplevel_157 Bool)
  (temp___do_typ_inv_158 Bool)) Bool (=>
                                     (or (= temp___is_init_155 true)
                                     (<= 0 10)) (in_range temp___expr_159)))

(declare-const attr__ATTRIBUTE_ADDRESS Int)

(declare-sort valid_index_type 0)

(declare-fun valid_index_typeqtint (valid_index_type) Int)

;; valid_index_type'axiom
  (assert
  (forall ((i valid_index_type))
  (and (<= 1 (valid_index_typeqtint i)) (<= (valid_index_typeqtint i) 10))))

(define-fun in_range1 ((x Int)) Bool (and (<= 1 x) (<= x 10)))

(declare-fun attr__ATTRIBUTE_IMAGE1 (Int) us_image)

(declare-fun attr__ATTRIBUTE_VALUE__pre_check1 (us_image) Bool)

(declare-fun attr__ATTRIBUTE_VALUE1 (us_image) Int)

(declare-fun user_eq1 (valid_index_type valid_index_type) Bool)

(declare-const dummy1 valid_index_type)

(declare-datatypes ((valid_index_type__ref 0))
(((valid_index_type__refqtmk (valid_index_type__content valid_index_type)))))
(define-fun valid_index_type__ref_valid_index_type__content__projection ((a valid_index_type__ref)) valid_index_type 
  (valid_index_type__content a))

(define-fun dynamic_invariant1 ((temp___expr_166 Int)
  (temp___is_init_162 Bool) (temp___skip_constant_163 Bool)
  (temp___do_toplevel_164 Bool)
  (temp___do_typ_inv_165 Bool)) Bool (=>
                                     (or (= temp___is_init_162 true)
                                     (<= 1 10)) (in_range1 temp___expr_166)))

(assert
;; defqtvc
 ;; File "out_subcheck.ads", line 8, characters 0-0
  (not
  (forall ((x Int) (out_subcheck__read__z Int))
  (=> (dynamic_invariant1 x false false true true)
  (=> (dynamic_invariant out_subcheck__read__z true true true true)
  (in_range1 out_subcheck__read__z))))))
(check-sat)
